3	5	3	9	13	11	10	13	16	18	3	8	13	11	8	19	18	9	1	18
15	7	15	2	8	17	12	20	8	12	5	17	16	7	2	7	13	1	5	7
1	6	5	7	4	1	18	5	7	5	12	4	10	1	7	10	4	17	13	10
11	15	8	12	3	4	2	12	2	4	11	3	10	13	3	4	11	17	9	6
2	7	14	16	16	20	8	4	15	19	14	16	13	20	6	18	4	15	4	8
20	11	9	9	12	16	14	19	12	18	5	11	19	11	2	17	1	14	7	9
3	16	3	19	18	14	15	6	10	20	18	13	18	10	3	3	2	8	17	6
7	17	1	14	11	1	17	15	17	7	4	18	15	1	1	16	7	7	13	19
18	3	16	5	19	6	1	15	10	20	9	8	20	3	18	5	17	9	15	1
